
Gurobi 9.0.2 (win64) logging started Sat Oct 10 15:20:55 2020

Changed value of parameter logfile to result\v6.2-20201010T1221\scenario_2030_eff065_cab2000.log
   Prev:   Default: 
Gurobi Optimizer version 9.0.2 build v9.0.2rc0 (win64)
Optimize a model with 1384150 rows, 884815 columns and 3912197 nonzeros
Model fingerprint: 0x40096b29
Coefficient statistics:
  Matrix range     [1e-07, 3e+05]
  Objective range  [1e+00, 1e+00]
  Bounds range     [0e+00, 0e+00]
  RHS range        [2e-05, 3e+08]
Warning: Model contains large matrix coefficient range
         Consider reformulating model or setting NumericFocus parameter
         to avoid numerical issues.

Concurrent LP optimizer: primal simplex, dual simplex, and barrier
Showing barrier log only...

Presolve removed 1129315 rows and 656241 columns
Presolve time: 3.51s
Presolved: 254835 rows, 342440 columns, 891938 nonzeros

Ordering time: 0.13s

Barrier statistics:
 Dense cols : 9
 AA' NZ     : 8.194e+05
 Factor NZ  : 4.461e+06 (roughly 300 MBytes of memory)
 Factor Ops : 1.125e+08 (less than 1 second per iteration)
 Threads    : 30

                  Objective                Residual
Iter       Primal          Dual         Primal    Dual     Compl     Time
   0  -1.93473930e+16 -1.58515903e+15  5.80e+06 1.56e+04  2.32e+12     4s
   1  -2.97199626e+15 -1.58855205e+15  8.83e+05 4.70e+06  7.65e+11     5s
   2  -1.25595240e+15 -1.27886975e+15  3.71e+05 8.32e+05  2.14e+11     5s
   3  -4.54098031e+14 -1.03391593e+15  1.31e+05 2.40e+05  7.22e+10     5s
   4  -1.06869268e+14 -6.37684568e+14  2.84e+04 5.84e+04  1.67e+10     6s
   5  -3.45733602e+13 -4.32165741e+14  9.20e+03 2.94e+04  7.01e+09     6s
   6  -1.62921088e+13 -2.50215924e+14  4.56e+03 9.52e+03  2.79e+09     6s
   7  -6.47921761e+12 -1.42982070e+14  1.95e+03 1.87e+03  8.91e+08     6s
   8  -1.07357130e+12 -6.43871356e+13  4.62e+02 2.50e+02  1.95e+08     7s
   9   5.42277719e+11 -7.94505690e+12  1.99e+00 2.22e+00  1.27e+07     7s
  10   1.52710650e+11 -1.22228127e+12  1.44e-01 1.93e-01  2.00e+06     7s
  11   5.00635816e+10 -3.19092204e+11  3.22e-02 1.12e-08  5.35e+05     8s
  12   2.46005964e+10 -1.67848126e+11  1.32e-02 7.45e-09  2.78e+05     8s
  13   1.71460150e+10 -1.03057965e+11  7.21e-03 1.12e-08  1.74e+05     8s
  14   1.63770732e+10 -4.17967131e+10  6.68e-03 1.12e-08  8.43e+04     8s
  15   1.01234392e+10 -1.50735064e+10  2.12e-03 1.49e-08  3.65e+04     9s
  16   7.86991250e+09  1.42198862e+09  6.83e-04 1.12e-08  9.33e+03     9s
  17   7.30104520e+09  3.85129749e+09  4.15e-04 7.45e-09  4.99e+03     9s
  18   7.01011360e+09  4.34019446e+09  2.98e-04 5.59e-09  3.86e+03     9s
  19   6.90680887e+09  4.73240786e+09  2.54e-04 5.59e-09  3.14e+03    10s
  20   6.78990546e+09  4.90183420e+09  2.04e-04 5.59e-09  2.73e+03    10s
  21   6.69939038e+09  5.43967615e+09  1.67e-04 3.73e-09  1.82e+03    11s
  22   6.61363119e+09  5.59217995e+09  1.31e-04 3.73e-09  1.48e+03    11s
  23   6.49729317e+09  5.79365327e+09  8.16e-05 2.79e-09  1.02e+03    12s
  24   6.44714527e+09  5.84905590e+09  6.05e-05 2.79e-09  8.64e+02    12s
  25   6.38583632e+09  6.00215537e+09  3.60e-05 1.86e-09  5.54e+02    12s
  26   6.35783435e+09  6.05692592e+09  2.51e-05 1.86e-09  4.35e+02    13s
  27   6.33727581e+09  6.10630408e+09  1.74e-05 1.86e-09  3.34e+02    13s
  28   6.32780636e+09  6.13995000e+09  1.41e-05 1.86e-09  2.71e+02    13s
  29   6.31606669e+09  6.15740165e+09  9.98e-06 1.86e-09  2.29e+02    14s
  30   6.30412942e+09  6.20482156e+09  5.92e-06 1.86e-09  1.43e+02    14s
  31   6.29825082e+09  6.23036729e+09  4.00e-06 1.86e-09  9.80e+01    15s
  32   6.29634153e+09  6.24949967e+09  3.39e-06 1.86e-09  6.76e+01    15s
  33   6.29430756e+09  6.25161885e+09  2.77e-06 1.86e-09  6.16e+01    16s
  34   6.29249515e+09  6.25904549e+09  2.20e-06 1.86e-09  4.83e+01    16s
  35   6.29136262e+09  6.26173545e+09  1.85e-06 2.79e-09  4.28e+01    17s
  36   6.29042274e+09  6.26790918e+09  1.57e-06 1.86e-09  3.25e+01    17s
  37   6.28849583e+09  6.27198084e+09  9.78e-07 1.86e-09  2.38e+01    17s
  38   6.28807114e+09  6.27538135e+09  8.57e-07 1.86e-09  1.83e+01    18s
  39   6.28778139e+09  6.27595983e+09  7.74e-07 1.86e-09  1.71e+01    18s
  40   6.28690964e+09  6.27894338e+09  5.15e-07 1.86e-09  1.15e+01    18s
  41   6.28616369e+09  6.28174506e+09  2.99e-07 1.86e-09  6.38e+00    19s
  42   6.28609605e+09  6.28220506e+09  2.80e-07 2.79e-09  5.62e+00    19s
  43   6.28559829e+09  6.28280053e+09  3.33e-07 1.86e-09  4.04e+00    20s
  44   6.28542288e+09  6.28371102e+09  2.16e-07 1.86e-09  2.47e+00    20s
  45   6.28537166e+09  6.28441791e+09  1.86e-07 1.86e-09  1.38e+00    20s
  46   6.28518217e+09  6.28463355e+09  6.95e-07 1.86e-09  7.92e-01    21s
  47   6.28514714e+09  6.28475138e+09  5.70e-07 1.86e-09  5.71e-01    21s
  48   6.28512377e+09  6.28494542e+09  4.87e-07 1.86e-09  2.58e-01    21s
  49   6.28508678e+09  6.28495918e+09  2.55e-07 1.86e-09  1.84e-01    22s
  50   6.28506124e+09  6.28503477e+09  9.34e-08 2.79e-09  3.82e-02    22s
  51   6.28505982e+09  6.28504321e+09  8.46e-08 2.79e-09  2.40e-02    23s
  52   6.28505680e+09  6.28504376e+09  6.55e-08 2.79e-09  1.89e-02    23s
  53   6.28504693e+09  6.28504471e+09  1.68e-08 1.86e-09  3.20e-03    23s
  54   6.28504626e+09  6.28504624e+09  2.26e-09 4.27e-09  2.22e-05    24s
  55   6.28504626e+09  6.28504624e+09  6.84e-04 5.72e-09  2.22e-05    25s

Barrier solved model in 55 iterations and 24.98 seconds
Optimal objective 6.28504626e+09

Crossover log...

   74731 DPushes remaining with DInf 0.0000000e+00                25s
       0 DPushes remaining with DInf 0.0000000e+00                29s
Warning: Markowitz tolerance tightened to 0.5

  107438 PPushes remaining with PInf 1.1171012e+00                29s
   43683 PPushes remaining with PInf 4.2822625e-01                30s
       0 PPushes remaining with PInf 0.0000000e+00                32s

  Push phase complete: Pinf 0.0000000e+00, Dinf 7.9691110e+01     32s

Iteration    Objective       Primal Inf.    Dual Inf.      Time
  132711    6.2850463e+09   0.000000e+00   7.969111e+01     32s
  132750    6.2850463e+09   0.000000e+00   0.000000e+00     35s

Solved with barrier
Solved in 132750 iterations and 35.47 seconds
Optimal objective  6.285046252e+09
Warning: unscaled primal violation = 0.000871355 and residual = 0.000871355
